80 8
53 18
8 71
44 45
26 80
15 99
96 67
19 70
36 10
57 13
59 79
10 69
85 68
65 1
7 68
74 34
61 12
72 95
5 40
30 66
39 38
82 23
59 42
70 47
80 35
86 85
32 3
5 9
97 85
14 82
63 99
87 76
46 39
49 37
2 11
78 2
4 64
25 51
87 56
86 69
1 84
37 9
72 62
68 4
6 64
34 1
19 28
49 40
40 2
51 24
77 63
10 49
51 98
29 84
77 67
22 83
13 10
87 19
45 79
78 20
75 94
31 9
37 92
59 24
12 98
69 61
25 79
2 19
74 35
42 17
34 77
89 52
67 19
96 16
39 76
58 39
38 88
40 60
32 67
83 45
64 92
146 396
222 728
276 562
156 682
161 459
179 554
269 619
106 454
